
Gurobi 7.0.2 (win64) logging started 06/24/20 00:26:13

Read LP format model from file C:\George\Professor\Pesquisa\Orientacoes em Pos-graduacao\2019 MSC PPGCC Guilherme Figueroa\Fanjuls Solver\Results\I_100_25_S_1-124_8_MTZ_KB.lp
Reading time = 1.61 seconds
: 15250 rows, 255101 columns, 1035025 nonzeros
Optimize a model with 15250 rows, 255101 columns and 1035025 nonzeros
Variable types: 2601 continuous, 252500 integer (252500 binary)
Coefficient statistics:
  Matrix range     [1e+00, 1e+02]
  Objective range  [1e+00, 1e+00]
  Bounds range     [1e+00, 1e+00]
  RHS range        [1e+00, 1e+02]
Presolve time: 2.53s
Presolved: 15250 rows, 255101 columns, 1035025 nonzeros
Variable types: 100 continuous, 255001 integer (255000 binary)
Found heuristic solution: objective 11563.000000
Found heuristic solution: objective 11492.000000

Root simplex log...

Iteration    Objective       Primal Inf.    Dual Inf.      Time
       0    0.0000000e+00   2.000000e+02   0.000000e+00      5s
    7362    2.5931605e-04   4.183676e+03   0.000000e+00     10s
   14162    8.6108987e-04   3.645200e+03   0.000000e+00     15s
   20188    1.9270660e+01   7.198738e+02   0.000000e+00     20s
   24962    3.6754848e+01   2.505259e+03   0.000000e+00     25s
   27426    3.9740434e+01   3.845803e+01   0.000000e+00     30s
   28090    3.9814547e+01   0.000000e+00   0.000000e+00     33s

Root relaxation: objective 3.981455e+01, 28090 iterations, 27.53 seconds

    Nodes    |    Current Node    |     Objective Bounds      |     Work
 Expl Unexpl |  Obj  Depth IntInf | Incumbent    BestBd   Gap | It/Node Time

     0     0   39.81455    0  561 11492.0000   39.81455   100%     -   33s
H    0     0                     275.0000000   39.81455  85.5%     -   63s
H    0     0                      88.0000000   39.81455  54.8%     -   92s
     0     0   40.06674    0  591   88.00000   40.06674  54.5%     -  108s
     0     0   40.06674    0  561   88.00000   40.06674  54.5%     -  140s
     0     0   40.06674    0  591   88.00000   40.06674  54.5%     -  148s
     0     0   40.06674    0  591   88.00000   40.06674  54.5%     -  148s
     0     0   41.00000    0  647   88.00000   41.00000  53.4%     -  164s
     0     0   41.00000    0  636   88.00000   41.00000  53.4%     -  164s
     0     0   41.00000    0  642   88.00000   41.00000  53.4%     -  170s
     0     0   41.00000    0  633   88.00000   41.00000  53.4%     -  171s
     0     0   41.00000    0  637   88.00000   41.00000  53.4%     -  176s
     0     0   41.00000    0  694   88.00000   41.00000  53.4%     -  177s
     0     0   41.00000    0  650   88.00000   41.00000  53.4%     -  181s
     0     0   41.00000    0  658   88.00000   41.00000  53.4%     -  181s
     0     0   41.00000    0  530   88.00000   41.00000  53.4%     -  197s
     0     0   41.00000    0  601   88.00000   41.00000  53.4%     -  200s
     0     0   41.00000    0  524   88.00000   41.00000  53.4%     -  209s
     0     0   41.00000    0  584   88.00000   41.00000  53.4%     -  210s
     0     0   41.00000    0  611   88.00000   41.00000  53.4%     -  218s
     0     0   41.00000    0  622   88.00000   41.00000  53.4%     -  220s
     0     0   41.00000    0  552   88.00000   41.00000  53.4%     -  230s
     0     0   41.00000    0  552   88.00000   41.00000  53.4%     -  290s
     0     2   41.00000    0  552   88.00000   41.00000  53.4%     -  304s
     1     4   41.00000    1  631   88.00000   41.00000  53.4%  3315  318s
     2     4   41.58466    1  602   88.00000   41.00000  53.4%  3095  332s
     3     4   41.00000    2  634   88.00000   41.00000  53.4%  2534  337s
     4     4   41.04074    2  644   88.00000   41.00000  53.4%  2469  346s
     5     5   41.00000    3  646   88.00000   41.00000  53.4%  2187  350s
     8     6   41.61121    5  649   88.00000   41.00000  53.4%  1677  358s
     9     7   42.00000    6  628   88.00000   41.00000  53.4%  2228  373s
    10     8   42.00000    7  625   88.00000   41.00000  53.4%  2012  376s
    12    10   42.00000    9  618   88.00000   41.00000  53.4%  1759  382s
    14    12   42.00000   11  647   88.00000   41.00000  53.4%  1549  386s
    16    14   42.00000   12  608   88.00000   41.00000  53.4%  1497  402s
    18    16   42.00000   14  593   88.00000   41.00000  53.4%  1365  405s
    22    20   42.00000   17  640   88.00000   41.00000  53.4%  1249  413s
    23    21   42.00000   18  675   88.00000   41.00000  53.4%  1215  415s
    25    23   49.00000   20  631   88.00000   41.00000  53.4%  1213  435s
    27    24   43.00000   21  606   88.00000   41.00000  53.4%  1310  444s
    28    25   43.00000   22  623   88.00000   41.00000  53.4%  1273  447s
    30    27   43.00000   24  647   88.00000   41.00000  53.4%  1199  450s
    35    32   43.00000   29  643   88.00000   41.00000  53.4%  1054  456s
    38    35   43.00000   32  680   88.00000   41.00000  53.4%   982  460s
    40    36   43.21967   33  561   88.00000   41.00000  53.4%  1015  468s
    41    37   43.00000   34  618   88.00000   41.00000  53.4%  1009  470s
    44    39   43.94878   35  634   88.00000   41.00000  53.4%  1045  477s
    48    43   43.00000   39  686   88.00000   41.00000  53.4%   968  480s
    54    49   43.00000   45  688   88.00000   41.00000  53.4%   871  485s
    64    59   43.00000   55  689   88.00000   41.00000  53.4%   754  490s
    71    65   43.20024   62  552   88.00000   41.00000  53.4%   716  496s
    75    69   43.00000   64  649   88.00000   41.00000  53.4%   705  500s
    80    73   70.00000   68  626   88.00000   41.00000  53.4%   695  515s
    81    74   44.00000   69  601   88.00000   41.00000  53.4%   744  524s
    82    75   44.00000   70  645   88.00000   41.00000  53.4%   737  526s
    85    78   44.00000   73  661   88.00000   41.00000  53.4%   716  531s
    88    81   44.00000   76  640   88.00000   41.00000  53.4%   699  535s
    92    85   44.00000   80  627   88.00000   41.00000  53.4%   678  540s
    98    91   44.00000   86  624   88.00000   41.00000  53.4%   645  545s
   105    98   44.00000   93  640   88.00000   41.00000  53.4%   611  550s
   112   105   44.00000  100  622   88.00000   41.00000  53.4%   580  555s
   117   110   44.00000  105  590   88.00000   41.00000  53.4%   565  560s
   120   113   44.00000  108  586   88.00000   41.00000  53.4%   566  565s
   122   114   44.70272  109  558   88.00000   41.00000  53.4%   578  570s
   129   120   44.24474  115  522   88.00000   41.00000  53.4%   573  575s
   134   124   44.58509  119  507   88.00000   41.00000  53.4%   581  581s
   138   128   44.00000  123  595   88.00000   41.00000  53.4%   577  585s
   142   131   44.00000  126  609   88.00000   41.00000  53.4%   585  590s
   150   136   83.00000  131  549   88.00000   41.00000  53.4%   577  603s
   151   137   45.00000  132  543   88.00000   41.00000  53.4%   610  610s
   155   141   45.00000  136  618   88.00000   41.00000  53.4%   600  615s
   159   145   45.00000  140  623   88.00000   41.00000  53.4%   591  620s
   163   149   45.00000  144  573   88.00000   41.00000  53.4%   587  625s
   170   156   45.00000  150  596   88.00000   41.00000  53.4%   572  630s
   177   163   45.00000  157  628   88.00000   41.00000  53.4%   555  635s
   186   172   45.00000  166  636   88.00000   41.00000  53.4%   533  640s
H  188   172                      84.0000000   41.00000  51.2%   528  656s
H  188   168                      73.0000000   41.00000  43.8%   528  663s
   188   169   45.79358  167  529   73.00000   41.00000  43.8%   543  677s
   191   171   45.00000  170  614   73.00000   41.00000  43.8%   539  680s
   199   178   45.00000  178  614   73.00000   41.00000  43.8%   528  686s
   208   187   45.00000  187  589   73.00000   41.00000  43.8%   511  690s
   218   196   45.00000  197  638   73.00000   41.00000  43.8%   497  695s
   230   208   48.00000  209  577   73.00000   41.00000  43.8%   501  709s
   233   210   46.00000  211  590   73.00000   41.00000  43.8%   506  714s
   234   211   46.00000  212  584   73.00000   41.00000  43.8%   507  716s
   240   217   46.00000  218  604   73.00000   41.00000  43.8%   503  720s
   248   223   47.00000  225  573   73.00000   41.00000  43.8%   507  728s
   249   224   47.00000  226  609   73.00000   41.00000  43.8%   506  730s
   252   227   47.00000  229  605   73.00000   41.00000  43.8%   502  735s
   256   230   47.00000  233  626   73.00000   41.00000  43.8%   497  741s
   258   232   47.00000  235  582   73.00000   41.00000  43.8%   495  745s
   262   236   47.00000  239  623   73.00000   41.00000  43.8%   491  750s
   269   240   47.00000  246  636   73.00000   41.00000  43.8%   481  755s
   274   245   47.00000  251  618   73.00000   41.00000  43.8%   474  760s
   283   254   47.00000  260  627   73.00000   41.00000  43.8%   462  765s
   290   257   47.00000  267  613   73.00000   41.00000  43.8%   454  770s
   297   263   47.00000  274  604   73.00000   41.00000  43.8%   445  775s
   306   272   47.00000  283  595   73.00000   41.00000  43.8%   437  780s
   314   279   47.00000  291  621   73.00000   41.00000  43.8%   431  785s
   324   284   47.00000  301  546   73.00000   41.00000  43.8%   421  790s
   333   293   47.00000  310  573   73.00000   41.00000  43.8%   414  795s
   347   307   47.00000  324  584   73.00000   41.00000  43.8%   403  800s
   356   315   47.00000  332  581   73.00000   41.00000  43.8%   401  805s
   367   326   47.00000  343  580   73.00000   41.00000  43.8%   396  810s
   382   341   47.00000  358  601   73.00000   41.00000  43.8%   386  815s
   402   361   47.00000  378  592   73.00000   41.00000  43.8%   373  820s
   418   376   47.00000  393  573   73.00000   41.00000  43.8%   367  825s
   434   389   49.26037  407  478   73.00000   41.00000  43.8%   366  831s
   435   390   48.00000  408  591   73.00000   41.00000  43.8%   373  835s
   444   397   56.00000  416  579   73.00000   41.00000  43.8%   378  847s
   445   398   49.00000  417  536   73.00000   41.00000  43.8%   383  850s
   451   404   49.00000  423  569   73.00000   41.00000  43.8%   380  855s
   457   410   49.00000  429  566   73.00000   41.00000  43.8%   378  860s
   464   416   49.00000  436  613   73.00000   41.00000  43.8%   375  865s
   473   423   49.00000  445  636   73.00000   41.00000  43.8%   370  870s
   488   438   49.00000  460  605   73.00000   41.00000  43.8%   365  875s
   499   449   49.00000  471  549   73.00000   41.00000  43.8%   363  880s
   504   452   50.00000  475  538   73.00000   41.00000  43.8%   365  885s
   511   458   50.00000  482  614   73.00000   41.00000  43.8%   364  890s
   520   466   50.00000  491  590   73.00000   41.00000  43.8%   361  895s
   530   476   50.00000  501  581   73.00000   41.00000  43.8%   358  900s
   536   479   51.00000  506  565   73.00000   41.00000  43.8%   364  906s
   539   481   51.00000  509  575   73.00000   41.00000  43.8%   363  910s
   548   490   51.00000  518  562   73.00000   41.00000  43.8%   360  915s
   560   500   51.00000  530  547   73.00000   41.00000  43.8%   355  920s
   572   512   51.00000  542  569   73.00000   41.00000  43.8%   351  925s
   580   517   52.00000  549  520   73.00000   41.00000  43.8%   353  930s
   587   524   52.00000  556  550   73.00000   41.00000  43.8%   350  935s
   592   527   55.25743  561  579   73.00000   41.00000  43.8%   353  943s
   593   527   55.50485  562  543   73.00000   41.00000  43.8%   353  945s
   596   528   57.00000  565  551   73.00000   41.00000  43.8%   352  950s
   601   531   57.00000  570  559   73.00000   41.00000  43.8%   350  955s
   606   534   57.00000  575  559   73.00000   41.00000  43.8%   348  960s
   609   536   57.00000  578  592   73.00000   41.00000  43.8%   347  966s
   613   539   57.00000  582  566   73.00000   41.00000  43.8%   345  970s
   616   541   57.00000  585  564   73.00000   41.00000  43.8%   345  975s
   622   544   58.00000  590  522   73.00000   41.00000  43.8%   343  980s
   633   554   58.00000  601  541   73.00000   41.00000  43.8%   338  985s
   640   555   41.79956    3  624   73.00000   41.00000  43.8%   337  990s
   642   556   43.00000   55  591   73.00000   41.00000  43.8%   336 1015s
   644   557   45.00000  139  407   73.00000   41.00000  43.8%   335 1030s
   646   559   49.00000  447  681   73.00000   41.00000  43.8%   334 1039s
   647   559   47.00000  350  708   73.00000   41.06378  43.7%   334 1041s
   649   561   47.00000  277  693   73.00000   42.00000  42.5%   333 1050s
   652   563   50.00000  494  685   73.00000   42.00000  42.5%   331 1055s
   655   565   43.00000   31  704   73.00000   42.00000  42.5%   330 1060s
   657   566   50.00000  478  478   73.00000   42.00000  42.5%   329 1081s
   658   567   47.00000  355  632   73.00000   42.00000  42.5%   328 1087s
   659   567   45.00000  187  525   73.00000   42.00000  42.5%   328 1097s
   660   568   47.00000  351  661   73.00000   42.00000  42.5%   327 1100s
   661   569   51.00000  534  609   73.00000   42.00000  42.5%   327 1113s
   662   569   43.00000   55  676   73.00000   42.00000  42.5%   326 1116s
   663   570   45.00000  153  619   73.00000   42.00000  42.5%   326 1127s
   664   571   45.00000  139  609   73.00000   42.00000  42.5%   325 1132s
   667   574   47.00000  350  591   73.00000   42.00000  42.5%   634 1192s
   669   575   47.00000  277  422   73.00000   42.00000  42.5%   632 1211s
   670   576   50.00000  498  679   73.00000   42.00000  42.5%   631 1216s
   671   577   50.00000  499  696   73.00000   42.00000  42.5%   630 1222s
   673   578   46.00000  213  685   73.00000   42.00000  42.5%   628 1226s
   674   579   51.00000  527  531   73.00000   42.00000  42.5%   627 1242s
   675   579   43.00000   31  674   73.00000   42.00000  42.5%   626 1246s
   676   580   45.00000  120  619   73.00000   42.00000  42.5%   625 1262s
   677   581   50.00000  478  705   73.00000   42.00000  42.5%   624 1269s
   678   581   47.00000  355  631   73.00000   42.00000  42.5%   624 1286s
   679   582   45.00000  187  750   73.00000   42.00000  42.5%   623 1290s
   680   583   47.00000  351  650   73.00000   42.00000  42.5%   622 1303s
   681   583   51.00000  534  742   73.00000   42.00000  42.5%   621 1308s
   682   584   43.00000   55  565   73.00000   42.00000  42.5%   620 1323s
   683   585   45.00000  153  730   73.00000   42.00000  42.5%   619 1328s
   684   585   45.00000  139  607   73.00000   42.00000  42.5%   618 1347s
   685   586   49.00000  450  744   73.00000   42.00000  42.5%   617 1351s
   686   587   49.00000  447  665   73.00000   42.00000  42.5%   616 1365s
   687   587   47.00000  350  746   73.00000   42.00000  42.5%   615 1370s
   688   588   45.00000  200  643   73.00000   42.00000  42.5%   614 1438s
   689   589   47.00000  277  643   73.00000   42.00000  42.5%   614 1445s
   690   589   50.00000  498  643   73.00000   42.00000  42.5%   613 1463s
   691   592   42.00000   30  650   73.00000   42.00000  42.5%   896 1532s
   692   593   42.00000   30  685   73.00000   42.00000  42.5%   901 1588s
   693   593   42.00000   31  712   73.00000   42.00000  42.5%   903 1642s
   694   594   42.00000   31  685   73.00000   42.00000  42.5%   905 1654s
   695   595   42.00000   32  675   73.00000   42.00000  42.5%   906 1660s
   696   595   42.00000   32  667   73.00000   42.00000  42.5%   907 1666s
   697   596   42.00000   33  663   73.00000   42.00000  42.5%   907 1671s
   698   597   42.00000   33  666   73.00000   42.00000  42.5%   912 1679s
   699   597   42.00000   34  657   73.00000   42.00000  42.5%   918 1688s
   700   598   42.00000   34  675   73.00000   42.00000  42.5%   919 1692s
   701   599   42.00000   35  665   73.00000   42.00000  42.5%   919 1697s
   702   599   42.00000   35  682   73.00000   42.00000  42.5%   920 1700s
   704   601   42.00000   36  648   73.00000   42.00000  42.5%   923 1707s
   705   600   42.03780   37  624   73.00000   42.00000  42.5%   924 1710s
   707   601   43.00000   38  656   73.00000   42.00000  42.5%   939 1729s
   708   601   43.00000   39  608   73.00000   42.00000  42.5%   938 1732s
   709   602   47.00000   39  594   73.00000   42.00000  42.5%   940 1744s
   710   603   43.00000   40  610   73.00000   42.00000  42.5%   939 1748s
   711   603   48.00000   40  611   73.00000   42.00000  42.5%   939 1757s
   712   604   48.00000   41  558   73.00000   42.00000  42.5%   939 1762s
   713   605   43.00000   41  664   73.00000   42.00000  42.5%   939 1767s
   714   605   43.00000   42  648   73.00000   42.00000  42.5%   938 1773s
   715   606   44.00000   42  595   73.00000   42.00000  42.5%   939 1780s
   717   607   51.00000   43  581   73.00000   42.00000  42.5%   938 1791s
   718   608   43.00000   44  614   73.00000   42.00000  42.5%   938 1795s
   719   609   43.00000   44  641   73.00000   42.00000  42.5%   938 1800s

Cutting planes:
  Gomory: 2
  Implied bound: 19
  Clique: 1
  MIR: 23
  Flow cover: 48
  Zero half: 8
  Mod-K: 6

Explored 720 nodes (704071 simplex iterations) in 1800.09 seconds
Thread count was 1 (of 12 available processors)

Solution count 6: 73 84 88 ... 11563
Pool objective bound 42

Time limit reached
Best objective 7.300000000000e+01, best bound 4.200000000000e+01, gap 42.4658%
